10
1 0 34
2 0 22
2 1 49
3 0 3
3 1 16
3 2 29
4 0 27
4 1 5
4 2 56
4 3 30
5 0 47
5 1 36
5 2 17
5 3 11
5 4 14
6 0 48
6 1 6
6 2 31
6 3 28
6 4 45
6 5 18
7 0 32
7 1 46
7 2 49
7 3 7
7 4 21
7 5 34
7 6 50
8 0 49
8 1 39
8 2 23
8 3 45
8 4 55
8 5 10
8 6 33
8 7 14
9 0 48
9 1 7
9 2 20
9 3 28
9 4 11
9 5 44
9 6 35
9 7 13
9 8 50
